NAME: I3765-n29-k3
COMMENT : (Fake et al, No of trucks: 3, Optimal value: )
TYPE : CVRP
DIMENSION : 29
EDGE_WEIGHT_TYPE : EUC_2D
CAPACITY : 66
NODE_COORD_SECTION
1 562 491
2 463 990
3 355 962
4 720 177
5 224 675
6 651 716
7 247 544
8 386 768
9 230 449
10 271 984
11 293 453
12 705 740
13 612 955
14 637 76
15 8 62
16 468 923
17 43 772
18 232 140
19 112 734
20 628 45
21 604 47
22 898 852
23 144 135
24 898 665
25 761 146
26 501 568
27 720 954
28 526 104
29 85 460
DEMAND_SECTION
1 0
2 6
3 10
4 4
5 5
6 10
7 4
8 9
9 6
10 8
11 10
12 6
13 4
14 7
15 1
16 10
17 5
18 8
19 4
20 2
21 9
22 7
23 7
24 2
25 6
26 5
27 10
28 2
29 10
DEPOT_SECTION
 1
 -1
 EOF 